# set
set V := C1 C2 C3 C4 C5 C6 C7 C8 C9 C10 ;
set F := F11 F12 F13 F14 F15 F11_1 F11_2 F11_3 F11_4 F12_1 F12_2 F12_3 F12_4 F13_1 F13_2 F13_3 F13_4 F14_1 F14_2 F14_3 F14_4 F15_1 F15_2 F15_3 F15_4 ;
set D0 := N0;
set Dσ := Nσ;

# param
param Cf := 200;		# ECV fixed cost
param C := 200;		# ECV max load
param Q := 77.75;		# ECV/BSV battery level
param r := 1;		# ECV consumption

param Cr := 100;		# recharging cost
param Ct := 10;		# travel cost
param Cs ;		# battery swap cost
param n := 10;		# number of customers
param g := 10.41;	# recharging rate

param m :=
N0 0
C1 20
C2 20
C3 10
C4 30
C5 30
C6 20
C7 40
C8 10
C9 10
C10 10
F11 0
F11_1 0
F11_2 0
F11_3 0
F11_4 0
F12 0
F12_1 0
F12_2 0
F12_3 0
F12_4 0
F13 0
F13_1 0
F13_2 0
F13_3 0
F13_4 0
F14 0
F14_1 0
F14_2 0
F14_3 0
F14_4 0
F15 0
F15_1 0
F15_2 0
F15_3 0
F15_4 0
Nσ 0
;

param e :=
N0 0
C1 30
C2 109
C3 727
C4 30
C5 196
C6 647
C7 186
C8 261
C9 737
C10 95
F11 0
F11_1 0
F11_2 0
F11_3 0
F11_4 0
F12 0
F12_1 0
F12_2 0
F12_3 0
F12_4 0
F13 0
F13_1 0
F13_2 0
F13_3 0
F13_4 0
F14 0
F14_1 0
F14_2 0
F14_3 0
F14_4 0
F15 0
F15_1 0
F15_2 0
F15_3 0
F15_4 0
Nσ 0
;

param l :=
N0 1236
C1 84
C2 170
C3 782
C4 92
C5 239
C6 726
C7 257
C8 316
C9 802
C10 156
F11 1236
F11_1 1236
F11_2 1236
F11_3 1236
F11_4 1236
F12 1236
F12_1 1236
F12_2 1236
F12_3 1236
F12_4 1236
F13 1236
F13_1 1236
F13_2 1236
F13_3 1236
F13_4 1236
F14 1236
F14_1 1236
F14_2 1236
F14_3 1236
F14_4 1236
F15 1236
F15_1 1236
F15_2 1236
F15_3 1236
F15_4 1236
Nσ 1236
;

param s :=
N0 0
C1 90
C2 90
C3 90
C4 90
C5 90
C6 90
C7 90
C8 90
C9 90
C10 90
F11 0
F11_1 0
F11_2 0
F11_3 0
F11_4 0
F12 0
F12_1 0
F12_2 0
F12_3 0
F12_4 0
F13 0
F13_1 0
F13_2 0
F13_3 0
F13_4 0
F14 0
F14_1 0
F14_2 0
F14_3 0
F14_4 0
F15 0
F15_1 0
F15_2 0
F15_3 0
F15_4 0
Nσ 0
;

param d : N0 C1 C2 C3 C4 C5 C6 C7 C8 C9 C10 F11 F11_1 F11_2 F11_3 F11_4 F12 F12_1 F12_2 F12_3 F12_4 F13 F13_1 F13_2 F13_3 F13_4 F14 F14_1 F14_2 F14_3 F14_4 F15 F15_1 F15_2 F15_3 F15_4 Nσ  :=
N0 0.0000 30.8058 50.2892 18.1108 30.8058 37.2022 38.0789 40.0500 17.1172 24.3516 36.0555 0.0000 0.0000 0.0000 0.0000 0.0000 37.0540 37.0540 37.0540 37.0540 37.0540 36.2353 36.2353 36.2353 36.2353 36.2353 42.7551 42.7551 42.7551 42.7551 42.7551 53.4603 53.4603 53.4603 53.4603 53.4603 0.0000
C1 30.8058 0.0000 50.0000 17.4642 36.0000 6.4031 10.4403 66.9403 41.8808 17.7200 5.3852 30.8058 30.8058 30.8058 30.8058 30.8058 29.8329 29.8329 29.8329 29.8329 29.8329 7.0711 7.0711 7.0711 7.0711 7.0711 67.7422 67.7422 67.7422 67.7422 67.7422 47.4236 47.4236 47.4236 47.4236 47.4236 30.8058
C2 50.2892 50.0000 0.0000 56.6127 77.1751 51.9711 59.9083 52.3546 67.1863 33.9706 53.0000 50.2892 50.2892 50.2892 50.2892 50.2892 20.2485 20.2485 20.2485 20.2485 20.2485 56.3028 56.3028 56.3028 56.3028 56.3028 48.2597 48.2597 48.2597 48.2597 48.2597 9.4340 9.4340 9.4340 9.4340 9.4340 50.2892
C3 18.1108 17.4642 56.6127 0.0000 21.1896 23.3238 21.4009 58.0000 24.8395 23.2594 21.6333 18.1108 18.1108 18.1108 18.1108 18.1108 38.4838 38.4838 38.4838 38.4838 38.4838 20.5183 20.5183 20.5183 20.5183 20.5183 60.2993 60.2993 60.2993 60.2993 60.2993 56.7979 56.7979 56.7979 56.7979 56.7979 18.1108
C4 30.8058 36.0000 77.1751 21.1896 0.0000 40.3113 34.4819 68.0074 23.0217 44.3847 38.3275 30.8058 30.8058 30.8058 30.8058 30.8058 59.6154 59.6154 59.6154 59.6154 59.6154 35.6931 35.6931 35.6931 35.6931 35.6931 71.8679 71.8679 71.8679 71.8679 71.8679 77.8781 77.8781 77.8781 77.8781 77.8781 30.8058
C5 37.2022 6.4031 51.9711 23.3238 40.3113 0.0000 8.6023 72.8011 48.0104 22.0227 2.0000 37.2022 37.2022 37.2022 37.2022 37.2022 31.7648 31.7648 31.7648 31.7648 31.7648 5.3852 5.3852 5.3852 5.3852 5.3852 73.3485 73.3485 73.3485 73.3485 73.3485 48.2701 48.2701 48.2701 48.2701 48.2701 37.2022
C6 38.0789 10.4403 59.9083 21.4009 34.4819 8.6023 0.0000 76.1183 45.9674 28.1603 7.0711 38.0789 38.0789 38.0789 38.0789 38.0789 39.6611 39.6611 39.6611 39.6611 39.6611 3.6056 3.6056 3.6056 3.6056 3.6056 77.3175 77.3175 77.3175 77.3175 77.3175 56.6392 56.6392 56.6392 56.6392 56.6392 38.0789
C7 40.0500 66.9403 52.3546 58.0000 68.0074 72.8011 76.1183 0.0000 46.0977 52.3927 72.2772 40.0500 40.0500 40.0500 40.0500 40.0500 54.6717 54.6717 54.6717 54.6717 54.6717 73.5459 73.5459 73.5459 73.5459 73.5459 6.3246 6.3246 6.3246 6.3246 6.3246 60.7454 60.7454 60.7454 60.7454 60.7454 40.0500
C8 17.1172 41.8808 67.1863 24.8395 23.0217 48.0104 45.9674 46.0977 0.0000 40.4475 46.4004 17.1172 17.1172 17.1172 17.1172 17.1172 54.0000 54.0000 54.0000 54.0000 54.0000 45.3431 45.3431 45.3431 45.3431 45.3431 50.6063 50.6063 50.6063 50.6063 50.6063 70.5762 70.5762 70.5762 70.5762 70.5762 17.1172
C9 24.3516 17.7200 33.9706 23.2594 44.3847 22.0227 28.1603 52.3927 40.4475 0.0000 22.2036 24.3516 24.3516 24.3516 24.3516 24.3516 15.2315 15.2315 15.2315 15.2315 15.2315 24.7386 24.7386 24.7386 24.7386 24.7386 52.2015 52.2015 52.2015 52.2015 52.2015 33.5410 33.5410 33.5410 33.5410 33.5410 24.3516
C10 36.0555 5.3852 53.0000 21.6333 38.3275 2.0000 7.0711 72.2772 46.4004 22.2036 0.0000 36.0555 36.0555 36.0555 36.0555 36.0555 32.7567 32.7567 32.7567 32.7567 32.7567 3.6056 3.6056 3.6056 3.6056 3.6056 72.9932 72.9932 72.9932 72.9932 72.9932 49.5782 49.5782 49.5782 49.5782 49.5782 36.0555
F11 0.0000 30.8058 50.2892 18.1108 30.8058 37.2022 38.0789 40.0500 17.1172 24.3516 36.0555 0.0000 0.0000 0.0000 0.0000 0.0000 37.0540 37.0540 37.0540 37.0540 37.0540 36.2353 36.2353 36.2353 36.2353 36.2353 42.7551 42.7551 42.7551 42.7551 42.7551 53.4603 53.4603 53.4603 53.4603 53.4603 0.0000
F11_1 0.0000 30.8058 50.2892 18.1108 30.8058 37.2022 38.0789 40.0500 17.1172 24.3516 36.0555 0.0000 0.0000 0.0000 0.0000 0.0000 37.0540 37.0540 37.0540 37.0540 37.0540 36.2353 36.2353 36.2353 36.2353 36.2353 42.7551 42.7551 42.7551 42.7551 42.7551 53.4603 53.4603 53.4603 53.4603 53.4603 0.0000
F11_2 0.0000 30.8058 50.2892 18.1108 30.8058 37.2022 38.0789 40.0500 17.1172 24.3516 36.0555 0.0000 0.0000 0.0000 0.0000 0.0000 37.0540 37.0540 37.0540 37.0540 37.0540 36.2353 36.2353 36.2353 36.2353 36.2353 42.7551 42.7551 42.7551 42.7551 42.7551 53.4603 53.4603 53.4603 53.4603 53.4603 0.0000
F11_3 0.0000 30.8058 50.2892 18.1108 30.8058 37.2022 38.0789 40.0500 17.1172 24.3516 36.0555 0.0000 0.0000 0.0000 0.0000 0.0000 37.0540 37.0540 37.0540 37.0540 37.0540 36.2353 36.2353 36.2353 36.2353 36.2353 42.7551 42.7551 42.7551 42.7551 42.7551 53.4603 53.4603 53.4603 53.4603 53.4603 0.0000
F11_4 0.0000 30.8058 50.2892 18.1108 30.8058 37.2022 38.0789 40.0500 17.1172 24.3516 36.0555 0.0000 0.0000 0.0000 0.0000 0.0000 37.0540 37.0540 37.0540 37.0540 37.0540 36.2353 36.2353 36.2353 36.2353 36.2353 42.7551 42.7551 42.7551 42.7551 42.7551 53.4603 53.4603 53.4603 53.4603 53.4603 0.0000
F12 37.0540 29.8329 20.2485 38.4838 59.6154 31.7648 39.6611 54.6717 54.0000 15.2315 32.7567 37.0540 37.0540 37.0540 37.0540 37.0540 0.0000 0.0000 0.0000 0.0000 0.0000 36.0555 36.0555 36.0555 36.0555 36.0555 52.6972 52.6972 52.6972 52.6972 52.6972 18.3576 18.3576 18.3576 18.3576 18.3576 37.0540
F12_1 37.0540 29.8329 20.2485 38.4838 59.6154 31.7648 39.6611 54.6717 54.0000 15.2315 32.7567 37.0540 37.0540 37.0540 37.0540 37.0540 0.0000 0.0000 0.0000 0.0000 0.0000 36.0555 36.0555 36.0555 36.0555 36.0555 52.6972 52.6972 52.6972 52.6972 52.6972 18.3576 18.3576 18.3576 18.3576 18.3576 37.0540
F12_2 37.0540 29.8329 20.2485 38.4838 59.6154 31.7648 39.6611 54.6717 54.0000 15.2315 32.7567 37.0540 37.0540 37.0540 37.0540 37.0540 0.0000 0.0000 0.0000 0.0000 0.0000 36.0555 36.0555 36.0555 36.0555 36.0555 52.6972 52.6972 52.6972 52.6972 52.6972 18.3576 18.3576 18.3576 18.3576 18.3576 37.0540
F12_3 37.0540 29.8329 20.2485 38.4838 59.6154 31.7648 39.6611 54.6717 54.0000 15.2315 32.7567 37.0540 37.0540 37.0540 37.0540 37.0540 0.0000 0.0000 0.0000 0.0000 0.0000 36.0555 36.0555 36.0555 36.0555 36.0555 52.6972 52.6972 52.6972 52.6972 52.6972 18.3576 18.3576 18.3576 18.3576 18.3576 37.0540
F12_4 37.0540 29.8329 20.2485 38.4838 59.6154 31.7648 39.6611 54.6717 54.0000 15.2315 32.7567 37.0540 37.0540 37.0540 37.0540 37.0540 0.0000 0.0000 0.0000 0.0000 0.0000 36.0555 36.0555 36.0555 36.0555 36.0555 52.6972 52.6972 52.6972 52.6972 52.6972 18.3576 18.3576 18.3576 18.3576 18.3576 37.0540
F13 36.2353 7.0711 56.3028 20.5183 35.6931 5.3852 3.6056 73.5459 45.3431 24.7386 3.6056 36.2353 36.2353 36.2353 36.2353 36.2353 36.0555 36.0555 36.0555 36.0555 36.0555 0.0000 0.0000 0.0000 0.0000 0.0000 74.5453 74.5453 74.5453 74.5453 74.5453 53.0754 53.0754 53.0754 53.0754 53.0754 36.2353
F13_1 36.2353 7.0711 56.3028 20.5183 35.6931 5.3852 3.6056 73.5459 45.3431 24.7386 3.6056 36.2353 36.2353 36.2353 36.2353 36.2353 36.0555 36.0555 36.0555 36.0555 36.0555 0.0000 0.0000 0.0000 0.0000 0.0000 74.5453 74.5453 74.5453 74.5453 74.5453 53.0754 53.0754 53.0754 53.0754 53.0754 36.2353
F13_2 36.2353 7.0711 56.3028 20.5183 35.6931 5.3852 3.6056 73.5459 45.3431 24.7386 3.6056 36.2353 36.2353 36.2353 36.2353 36.2353 36.0555 36.0555 36.0555 36.0555 36.0555 0.0000 0.0000 0.0000 0.0000 0.0000 74.5453 74.5453 74.5453 74.5453 74.5453 53.0754 53.0754 53.0754 53.0754 53.0754 36.2353
F13_3 36.2353 7.0711 56.3028 20.5183 35.6931 5.3852 3.6056 73.5459 45.3431 24.7386 3.6056 36.2353 36.2353 36.2353 36.2353 36.2353 36.0555 36.0555 36.0555 36.0555 36.0555 0.0000 0.0000 0.0000 0.0000 0.0000 74.5453 74.5453 74.5453 74.5453 74.5453 53.0754 53.0754 53.0754 53.0754 53.0754 36.2353
F13_4 36.2353 7.0711 56.3028 20.5183 35.6931 5.3852 3.6056 73.5459 45.3431 24.7386 3.6056 36.2353 36.2353 36.2353 36.2353 36.2353 36.0555 36.0555 36.0555 36.0555 36.0555 0.0000 0.0000 0.0000 0.0000 0.0000 74.5453 74.5453 74.5453 74.5453 74.5453 53.0754 53.0754 53.0754 53.0754 53.0754 36.2353
F14 42.7551 67.7422 48.2597 60.2993 71.8679 73.3485 77.3175 6.3246 50.6063 52.2015 72.9932 42.7551 42.7551 42.7551 42.7551 42.7551 52.6972 52.6972 52.6972 52.6972 52.6972 74.5453 74.5453 74.5453 74.5453 74.5453 0.0000 0.0000 0.0000 0.0000 0.0000 57.0088 57.0088 57.0088 57.0088 57.0088 42.7551
F14_1 42.7551 67.7422 48.2597 60.2993 71.8679 73.3485 77.3175 6.3246 50.6063 52.2015 72.9932 42.7551 42.7551 42.7551 42.7551 42.7551 52.6972 52.6972 52.6972 52.6972 52.6972 74.5453 74.5453 74.5453 74.5453 74.5453 0.0000 0.0000 0.0000 0.0000 0.0000 57.0088 57.0088 57.0088 57.0088 57.0088 42.7551
F14_2 42.7551 67.7422 48.2597 60.2993 71.8679 73.3485 77.3175 6.3246 50.6063 52.2015 72.9932 42.7551 42.7551 42.7551 42.7551 42.7551 52.6972 52.6972 52.6972 52.6972 52.6972 74.5453 74.5453 74.5453 74.5453 74.5453 0.0000 0.0000 0.0000 0.0000 0.0000 57.0088 57.0088 57.0088 57.0088 57.0088 42.7551
F14_3 42.7551 67.7422 48.2597 60.2993 71.8679 73.3485 77.3175 6.3246 50.6063 52.2015 72.9932 42.7551 42.7551 42.7551 42.7551 42.7551 52.6972 52.6972 52.6972 52.6972 52.6972 74.5453 74.5453 74.5453 74.5453 74.5453 0.0000 0.0000 0.0000 0.0000 0.0000 57.0088 57.0088 57.0088 57.0088 57.0088 42.7551
F14_4 42.7551 67.7422 48.2597 60.2993 71.8679 73.3485 77.3175 6.3246 50.6063 52.2015 72.9932 42.7551 42.7551 42.7551 42.7551 42.7551 52.6972 52.6972 52.6972 52.6972 52.6972 74.5453 74.5453 74.5453 74.5453 74.5453 0.0000 0.0000 0.0000 0.0000 0.0000 57.0088 57.0088 57.0088 57.0088 57.0088 42.7551
F15 53.4603 47.4236 9.4340 56.7979 77.8781 48.2701 56.6392 60.7454 70.5762 33.5410 49.5782 53.4603 53.4603 53.4603 53.4603 53.4603 18.3576 18.3576 18.3576 18.3576 18.3576 53.0754 53.0754 53.0754 53.0754 53.0754 57.0088 57.0088 57.0088 57.0088 57.0088 0.0000 0.0000 0.0000 0.0000 0.0000 53.4603
F15_1 53.4603 47.4236 9.4340 56.7979 77.8781 48.2701 56.6392 60.7454 70.5762 33.5410 49.5782 53.4603 53.4603 53.4603 53.4603 53.4603 18.3576 18.3576 18.3576 18.3576 18.3576 53.0754 53.0754 53.0754 53.0754 53.0754 57.0088 57.0088 57.0088 57.0088 57.0088 0.0000 0.0000 0.0000 0.0000 0.0000 53.4603
F15_2 53.4603 47.4236 9.4340 56.7979 77.8781 48.2701 56.6392 60.7454 70.5762 33.5410 49.5782 53.4603 53.4603 53.4603 53.4603 53.4603 18.3576 18.3576 18.3576 18.3576 18.3576 53.0754 53.0754 53.0754 53.0754 53.0754 57.0088 57.0088 57.0088 57.0088 57.0088 0.0000 0.0000 0.0000 0.0000 0.0000 53.4603
F15_3 53.4603 47.4236 9.4340 56.7979 77.8781 48.2701 56.6392 60.7454 70.5762 33.5410 49.5782 53.4603 53.4603 53.4603 53.4603 53.4603 18.3576 18.3576 18.3576 18.3576 18.3576 53.0754 53.0754 53.0754 53.0754 53.0754 57.0088 57.0088 57.0088 57.0088 57.0088 0.0000 0.0000 0.0000 0.0000 0.0000 53.4603
F15_4 53.4603 47.4236 9.4340 56.7979 77.8781 48.2701 56.6392 60.7454 70.5762 33.5410 49.5782 53.4603 53.4603 53.4603 53.4603 53.4603 18.3576 18.3576 18.3576 18.3576 18.3576 53.0754 53.0754 53.0754 53.0754 53.0754 57.0088 57.0088 57.0088 57.0088 57.0088 0.0000 0.0000 0.0000 0.0000 0.0000 53.4603
Nσ 0.0000 30.8058 50.2892 18.1108 30.8058 37.2022 38.0789 40.0500 17.1172 24.3516 36.0555 0.0000 0.0000 0.0000 0.0000 0.0000 37.0540 37.0540 37.0540 37.0540 37.0540 36.2353 36.2353 36.2353 36.2353 36.2353 42.7551 42.7551 42.7551 42.7551 42.7551 53.4603 53.4603 53.4603 53.4603 53.4603 0.0000
;

param t : N0 C1 C2 C3 C4 C5 C6 C7 C8 C9 C10 F11 F11_1 F11_2 F11_3 F11_4 F12 F12_1 F12_2 F12_3 F12_4 F13 F13_1 F13_2 F13_3 F13_4 F14 F14_1 F14_2 F14_3 F14_4 F15 F15_1 F15_2 F15_3 F15_4 Nσ  :=
N0 0.0000 30.8058 50.2892 18.1108 30.8058 37.2022 38.0789 40.0500 17.1172 24.3516 36.0555 0.0000 0.0000 0.0000 0.0000 0.0000 37.0540 37.0540 37.0540 37.0540 37.0540 36.2353 36.2353 36.2353 36.2353 36.2353 42.7551 42.7551 42.7551 42.7551 42.7551 53.4603 53.4603 53.4603 53.4603 53.4603 0.0000
C1 30.8058 0.0000 50.0000 17.4642 36.0000 6.4031 10.4403 66.9403 41.8808 17.7200 5.3852 30.8058 30.8058 30.8058 30.8058 30.8058 29.8329 29.8329 29.8329 29.8329 29.8329 7.0711 7.0711 7.0711 7.0711 7.0711 67.7422 67.7422 67.7422 67.7422 67.7422 47.4236 47.4236 47.4236 47.4236 47.4236 30.8058
C2 50.2892 50.0000 0.0000 56.6127 77.1751 51.9711 59.9083 52.3546 67.1863 33.9706 53.0000 50.2892 50.2892 50.2892 50.2892 50.2892 20.2485 20.2485 20.2485 20.2485 20.2485 56.3028 56.3028 56.3028 56.3028 56.3028 48.2597 48.2597 48.2597 48.2597 48.2597 9.4340 9.4340 9.4340 9.4340 9.4340 50.2892
C3 18.1108 17.4642 56.6127 0.0000 21.1896 23.3238 21.4009 58.0000 24.8395 23.2594 21.6333 18.1108 18.1108 18.1108 18.1108 18.1108 38.4838 38.4838 38.4838 38.4838 38.4838 20.5183 20.5183 20.5183 20.5183 20.5183 60.2993 60.2993 60.2993 60.2993 60.2993 56.7979 56.7979 56.7979 56.7979 56.7979 18.1108
C4 30.8058 36.0000 77.1751 21.1896 0.0000 40.3113 34.4819 68.0074 23.0217 44.3847 38.3275 30.8058 30.8058 30.8058 30.8058 30.8058 59.6154 59.6154 59.6154 59.6154 59.6154 35.6931 35.6931 35.6931 35.6931 35.6931 71.8679 71.8679 71.8679 71.8679 71.8679 77.8781 77.8781 77.8781 77.8781 77.8781 30.8058
C5 37.2022 6.4031 51.9711 23.3238 40.3113 0.0000 8.6023 72.8011 48.0104 22.0227 2.0000 37.2022 37.2022 37.2022 37.2022 37.2022 31.7648 31.7648 31.7648 31.7648 31.7648 5.3852 5.3852 5.3852 5.3852 5.3852 73.3485 73.3485 73.3485 73.3485 73.3485 48.2701 48.2701 48.2701 48.2701 48.2701 37.2022
C6 38.0789 10.4403 59.9083 21.4009 34.4819 8.6023 0.0000 76.1183 45.9674 28.1603 7.0711 38.0789 38.0789 38.0789 38.0789 38.0789 39.6611 39.6611 39.6611 39.6611 39.6611 3.6056 3.6056 3.6056 3.6056 3.6056 77.3175 77.3175 77.3175 77.3175 77.3175 56.6392 56.6392 56.6392 56.6392 56.6392 38.0789
C7 40.0500 66.9403 52.3546 58.0000 68.0074 72.8011 76.1183 0.0000 46.0977 52.3927 72.2772 40.0500 40.0500 40.0500 40.0500 40.0500 54.6717 54.6717 54.6717 54.6717 54.6717 73.5459 73.5459 73.5459 73.5459 73.5459 6.3246 6.3246 6.3246 6.3246 6.3246 60.7454 60.7454 60.7454 60.7454 60.7454 40.0500
C8 17.1172 41.8808 67.1863 24.8395 23.0217 48.0104 45.9674 46.0977 0.0000 40.4475 46.4004 17.1172 17.1172 17.1172 17.1172 17.1172 54.0000 54.0000 54.0000 54.0000 54.0000 45.3431 45.3431 45.3431 45.3431 45.3431 50.6063 50.6063 50.6063 50.6063 50.6063 70.5762 70.5762 70.5762 70.5762 70.5762 17.1172
C9 24.3516 17.7200 33.9706 23.2594 44.3847 22.0227 28.1603 52.3927 40.4475 0.0000 22.2036 24.3516 24.3516 24.3516 24.3516 24.3516 15.2315 15.2315 15.2315 15.2315 15.2315 24.7386 24.7386 24.7386 24.7386 24.7386 52.2015 52.2015 52.2015 52.2015 52.2015 33.5410 33.5410 33.5410 33.5410 33.5410 24.3516
C10 36.0555 5.3852 53.0000 21.6333 38.3275 2.0000 7.0711 72.2772 46.4004 22.2036 0.0000 36.0555 36.0555 36.0555 36.0555 36.0555 32.7567 32.7567 32.7567 32.7567 32.7567 3.6056 3.6056 3.6056 3.6056 3.6056 72.9932 72.9932 72.9932 72.9932 72.9932 49.5782 49.5782 49.5782 49.5782 49.5782 36.0555
F11 0.0000 30.8058 50.2892 18.1108 30.8058 37.2022 38.0789 40.0500 17.1172 24.3516 36.0555 0.0000 0.0000 0.0000 0.0000 0.0000 37.0540 37.0540 37.0540 37.0540 37.0540 36.2353 36.2353 36.2353 36.2353 36.2353 42.7551 42.7551 42.7551 42.7551 42.7551 53.4603 53.4603 53.4603 53.4603 53.4603 0.0000
F11_1 0.0000 30.8058 50.2892 18.1108 30.8058 37.2022 38.0789 40.0500 17.1172 24.3516 36.0555 0.0000 0.0000 0.0000 0.0000 0.0000 37.0540 37.0540 37.0540 37.0540 37.0540 36.2353 36.2353 36.2353 36.2353 36.2353 42.7551 42.7551 42.7551 42.7551 42.7551 53.4603 53.4603 53.4603 53.4603 53.4603 0.0000
F11_2 0.0000 30.8058 50.2892 18.1108 30.8058 37.2022 38.0789 40.0500 17.1172 24.3516 36.0555 0.0000 0.0000 0.0000 0.0000 0.0000 37.0540 37.0540 37.0540 37.0540 37.0540 36.2353 36.2353 36.2353 36.2353 36.2353 42.7551 42.7551 42.7551 42.7551 42.7551 53.4603 53.4603 53.4603 53.4603 53.4603 0.0000
F11_3 0.0000 30.8058 50.2892 18.1108 30.8058 37.2022 38.0789 40.0500 17.1172 24.3516 36.0555 0.0000 0.0000 0.0000 0.0000 0.0000 37.0540 37.0540 37.0540 37.0540 37.0540 36.2353 36.2353 36.2353 36.2353 36.2353 42.7551 42.7551 42.7551 42.7551 42.7551 53.4603 53.4603 53.4603 53.4603 53.4603 0.0000
F11_4 0.0000 30.8058 50.2892 18.1108 30.8058 37.2022 38.0789 40.0500 17.1172 24.3516 36.0555 0.0000 0.0000 0.0000 0.0000 0.0000 37.0540 37.0540 37.0540 37.0540 37.0540 36.2353 36.2353 36.2353 36.2353 36.2353 42.7551 42.7551 42.7551 42.7551 42.7551 53.4603 53.4603 53.4603 53.4603 53.4603 0.0000
F12 37.0540 29.8329 20.2485 38.4838 59.6154 31.7648 39.6611 54.6717 54.0000 15.2315 32.7567 37.0540 37.0540 37.0540 37.0540 37.0540 0.0000 0.0000 0.0000 0.0000 0.0000 36.0555 36.0555 36.0555 36.0555 36.0555 52.6972 52.6972 52.6972 52.6972 52.6972 18.3576 18.3576 18.3576 18.3576 18.3576 37.0540
F12_1 37.0540 29.8329 20.2485 38.4838 59.6154 31.7648 39.6611 54.6717 54.0000 15.2315 32.7567 37.0540 37.0540 37.0540 37.0540 37.0540 0.0000 0.0000 0.0000 0.0000 0.0000 36.0555 36.0555 36.0555 36.0555 36.0555 52.6972 52.6972 52.6972 52.6972 52.6972 18.3576 18.3576 18.3576 18.3576 18.3576 37.0540
F12_2 37.0540 29.8329 20.2485 38.4838 59.6154 31.7648 39.6611 54.6717 54.0000 15.2315 32.7567 37.0540 37.0540 37.0540 37.0540 37.0540 0.0000 0.0000 0.0000 0.0000 0.0000 36.0555 36.0555 36.0555 36.0555 36.0555 52.6972 52.6972 52.6972 52.6972 52.6972 18.3576 18.3576 18.3576 18.3576 18.3576 37.0540
F12_3 37.0540 29.8329 20.2485 38.4838 59.6154 31.7648 39.6611 54.6717 54.0000 15.2315 32.7567 37.0540 37.0540 37.0540 37.0540 37.0540 0.0000 0.0000 0.0000 0.0000 0.0000 36.0555 36.0555 36.0555 36.0555 36.0555 52.6972 52.6972 52.6972 52.6972 52.6972 18.3576 18.3576 18.3576 18.3576 18.3576 37.0540
F12_4 37.0540 29.8329 20.2485 38.4838 59.6154 31.7648 39.6611 54.6717 54.0000 15.2315 32.7567 37.0540 37.0540 37.0540 37.0540 37.0540 0.0000 0.0000 0.0000 0.0000 0.0000 36.0555 36.0555 36.0555 36.0555 36.0555 52.6972 52.6972 52.6972 52.6972 52.6972 18.3576 18.3576 18.3576 18.3576 18.3576 37.0540
F13 36.2353 7.0711 56.3028 20.5183 35.6931 5.3852 3.6056 73.5459 45.3431 24.7386 3.6056 36.2353 36.2353 36.2353 36.2353 36.2353 36.0555 36.0555 36.0555 36.0555 36.0555 0.0000 0.0000 0.0000 0.0000 0.0000 74.5453 74.5453 74.5453 74.5453 74.5453 53.0754 53.0754 53.0754 53.0754 53.0754 36.2353
F13_1 36.2353 7.0711 56.3028 20.5183 35.6931 5.3852 3.6056 73.5459 45.3431 24.7386 3.6056 36.2353 36.2353 36.2353 36.2353 36.2353 36.0555 36.0555 36.0555 36.0555 36.0555 0.0000 0.0000 0.0000 0.0000 0.0000 74.5453 74.5453 74.5453 74.5453 74.5453 53.0754 53.0754 53.0754 53.0754 53.0754 36.2353
F13_2 36.2353 7.0711 56.3028 20.5183 35.6931 5.3852 3.6056 73.5459 45.3431 24.7386 3.6056 36.2353 36.2353 36.2353 36.2353 36.2353 36.0555 36.0555 36.0555 36.0555 36.0555 0.0000 0.0000 0.0000 0.0000 0.0000 74.5453 74.5453 74.5453 74.5453 74.5453 53.0754 53.0754 53.0754 53.0754 53.0754 36.2353
F13_3 36.2353 7.0711 56.3028 20.5183 35.6931 5.3852 3.6056 73.5459 45.3431 24.7386 3.6056 36.2353 36.2353 36.2353 36.2353 36.2353 36.0555 36.0555 36.0555 36.0555 36.0555 0.0000 0.0000 0.0000 0.0000 0.0000 74.5453 74.5453 74.5453 74.5453 74.5453 53.0754 53.0754 53.0754 53.0754 53.0754 36.2353
F13_4 36.2353 7.0711 56.3028 20.5183 35.6931 5.3852 3.6056 73.5459 45.3431 24.7386 3.6056 36.2353 36.2353 36.2353 36.2353 36.2353 36.0555 36.0555 36.0555 36.0555 36.0555 0.0000 0.0000 0.0000 0.0000 0.0000 74.5453 74.5453 74.5453 74.5453 74.5453 53.0754 53.0754 53.0754 53.0754 53.0754 36.2353
F14 42.7551 67.7422 48.2597 60.2993 71.8679 73.3485 77.3175 6.3246 50.6063 52.2015 72.9932 42.7551 42.7551 42.7551 42.7551 42.7551 52.6972 52.6972 52.6972 52.6972 52.6972 74.5453 74.5453 74.5453 74.5453 74.5453 0.0000 0.0000 0.0000 0.0000 0.0000 57.0088 57.0088 57.0088 57.0088 57.0088 42.7551
F14_1 42.7551 67.7422 48.2597 60.2993 71.8679 73.3485 77.3175 6.3246 50.6063 52.2015 72.9932 42.7551 42.7551 42.7551 42.7551 42.7551 52.6972 52.6972 52.6972 52.6972 52.6972 74.5453 74.5453 74.5453 74.5453 74.5453 0.0000 0.0000 0.0000 0.0000 0.0000 57.0088 57.0088 57.0088 57.0088 57.0088 42.7551
F14_2 42.7551 67.7422 48.2597 60.2993 71.8679 73.3485 77.3175 6.3246 50.6063 52.2015 72.9932 42.7551 42.7551 42.7551 42.7551 42.7551 52.6972 52.6972 52.6972 52.6972 52.6972 74.5453 74.5453 74.5453 74.5453 74.5453 0.0000 0.0000 0.0000 0.0000 0.0000 57.0088 57.0088 57.0088 57.0088 57.0088 42.7551
F14_3 42.7551 67.7422 48.2597 60.2993 71.8679 73.3485 77.3175 6.3246 50.6063 52.2015 72.9932 42.7551 42.7551 42.7551 42.7551 42.7551 52.6972 52.6972 52.6972 52.6972 52.6972 74.5453 74.5453 74.5453 74.5453 74.5453 0.0000 0.0000 0.0000 0.0000 0.0000 57.0088 57.0088 57.0088 57.0088 57.0088 42.7551
F14_4 42.7551 67.7422 48.2597 60.2993 71.8679 73.3485 77.3175 6.3246 50.6063 52.2015 72.9932 42.7551 42.7551 42.7551 42.7551 42.7551 52.6972 52.6972 52.6972 52.6972 52.6972 74.5453 74.5453 74.5453 74.5453 74.5453 0.0000 0.0000 0.0000 0.0000 0.0000 57.0088 57.0088 57.0088 57.0088 57.0088 42.7551
F15 53.4603 47.4236 9.4340 56.7979 77.8781 48.2701 56.6392 60.7454 70.5762 33.5410 49.5782 53.4603 53.4603 53.4603 53.4603 53.4603 18.3576 18.3576 18.3576 18.3576 18.3576 53.0754 53.0754 53.0754 53.0754 53.0754 57.0088 57.0088 57.0088 57.0088 57.0088 0.0000 0.0000 0.0000 0.0000 0.0000 53.4603
F15_1 53.4603 47.4236 9.4340 56.7979 77.8781 48.2701 56.6392 60.7454 70.5762 33.5410 49.5782 53.4603 53.4603 53.4603 53.4603 53.4603 18.3576 18.3576 18.3576 18.3576 18.3576 53.0754 53.0754 53.0754 53.0754 53.0754 57.0088 57.0088 57.0088 57.0088 57.0088 0.0000 0.0000 0.0000 0.0000 0.0000 53.4603
F15_2 53.4603 47.4236 9.4340 56.7979 77.8781 48.2701 56.6392 60.7454 70.5762 33.5410 49.5782 53.4603 53.4603 53.4603 53.4603 53.4603 18.3576 18.3576 18.3576 18.3576 18.3576 53.0754 53.0754 53.0754 53.0754 53.0754 57.0088 57.0088 57.0088 57.0088 57.0088 0.0000 0.0000 0.0000 0.0000 0.0000 53.4603
F15_3 53.4603 47.4236 9.4340 56.7979 77.8781 48.2701 56.6392 60.7454 70.5762 33.5410 49.5782 53.4603 53.4603 53.4603 53.4603 53.4603 18.3576 18.3576 18.3576 18.3576 18.3576 53.0754 53.0754 53.0754 53.0754 53.0754 57.0088 57.0088 57.0088 57.0088 57.0088 0.0000 0.0000 0.0000 0.0000 0.0000 53.4603
F15_4 53.4603 47.4236 9.4340 56.7979 77.8781 48.2701 56.6392 60.7454 70.5762 33.5410 49.5782 53.4603 53.4603 53.4603 53.4603 53.4603 18.3576 18.3576 18.3576 18.3576 18.3576 53.0754 53.0754 53.0754 53.0754 53.0754 57.0088 57.0088 57.0088 57.0088 57.0088 0.0000 0.0000 0.0000 0.0000 0.0000 53.4603
Nσ 0.0000 30.8058 50.2892 18.1108 30.8058 37.2022 38.0789 40.0500 17.1172 24.3516 36.0555 0.0000 0.0000 0.0000 0.0000 0.0000 37.0540 37.0540 37.0540 37.0540 37.0540 36.2353 36.2353 36.2353 36.2353 36.2353 42.7551 42.7551 42.7551 42.7551 42.7551 53.4603 53.4603 53.4603 53.4603 53.4603 0.0000
;
